(set-logic QF_S)
(declare-fun var0 () String)
(assert (str.in.re var0 (re.++ (re.* (re.union (str.to.re "000") (str.to.re "111"))) (re.++ (re.+ (re.* (str.to.re "22"))) (re.++ (re.* (re.union (str.to.re "33") (str.to.re "44"))) (re.++ (re.union (re.+ (str.to.re "5")) (re.+ (str.to.re "666"))) (re.++ (re.union (re.+ (str.to.re "7")) (re.+ (str.to.re "888"))) (re.++ (re.+ (re.* (str.to.re "999"))) (re.++ (re.union (re.union (str.to.re "aa") (str.to.re "b")) (re.union (str.to.re "cc") (str.to.re "ddd"))) (re.++ (re.union (re.+ (str.to.re "eee")) (re.+ (str.to.re "ff"))) (re.++ (re.union (re.union (str.to.re "ggg") (str.to.re "h")) (re.union (str.to.re "iii") (str.to.re "jj"))) (re.+ (re.+ (str.to.re "k"))))))))))))))
(assert (<= 26 (str.len var0)))
(check-sat)